WARNING: for repeatability, setting FPU to use double precision
============================[ Problem Statistics ]=============================
|                                                                             |
|  Number of symmetries:          31                                          |
|  Number of invertingSyms:        0                                          |
|  Number of variables:           272                                         |
|  Number of clauses:            2193                                         |
|  Parse time:                   0.00 s                                       |
|                                                                             |
============================[ Search Statistics ]==============================
| Conflicts |          ORIGINAL         |          LEARNT          | Progress |
|           |    Vars  Clauses Literals |    Limit  Clauses Lit/Cl |          |
===============================================================================
|       100 |     272     2193     4624 |      804      103    111 |  0.001 % |
|       250 |     272     2193     4624 |      884      281    115 |  0.001 % |
|       475 |     272     2193     4624 |      972      587    105 |  0.001 % |
|       812 |     272     2193     4624 |     1070      968     87 |  0.001 % |
|      1318 |     272     2193     4624 |     1177      985     69 |  0.001 % |
|      2077 |     272     2193     4624 |     1295     1243     64 |  0.001 % |
|      3216 |     272     2193     4624 |     1424     1217     83 |  0.001 % |
|      4924 |     272     2193     4624 |     1566     1069    118 |  0.001 % |
|      7486 |     272     2193     4624 |     1723     1685     99 |  0.001 % |
|     11330 |     272     2193     4624 |     1896     1729    112 |  0.001 % |
|     17096 |     272     2193     4624 |     2085     2020     99 |  0.001 % |
|     25745 |     272     2193     4624 |     2294     1732    103 |  0.001 % |
|     38719 |     272     2193     4624 |     2523     1772    109 |  0.001 % |
|     58180 |     272     2193     4624 |     2775     2434     85 |  0.001 % |
|     87372 |     272     2193     4624 |     3053     2536     99 |  0.001 % |
|    131161 |     272     2193     4624 |     3358     2704    105 |  0.001 % |
|    196845 |     272     2193     4624 |     3694     2343    101 |  0.001 % |
|    295371 |     272     2193     4624 |     4064     2449    106 |  0.001 % |
|    443160 |     272     2193     4624 |     4470     4191    106 |  0.001 % |
|    664843 |     272     2193     4624 |     4917     3601    110 |  0.001 % |
|    997368 |     272     2193     4624 |     5409     4919    121 |  0.001 % |
|   1496156 |     272     2193     4624 |     5950     3697    109 |  0.001 % |
|   2244338 |     272     2193     4624 |     6545     4482    109 |  0.001 % |
|   3366612 |     272     2193     4624 |     7200     4308    115 |  0.001 % |
|   5050023 |     272     2193     4624 |     7920     3911    100 |  0.001 % |
|   7575139 |     272     2193     4624 |     8712     7495    103 |  0.001 % |
|  11362814 |     272     2193     4624 |     9583     8128    108 |  0.001 % |
|  17044326 |     272     2193     4624 |    10541     5759     98 |  0.001 % |
|  25566595 |     272     2193     4624 |    11595     8742    107 |  0.001 % |
|  38349998 |     272     2193     4624 |    12755    11345    116 |  0.001 % |
===============================================================================
restarts              : 65535
conflicts             : 50153654       (19025 /sec)
symconflicts          : 3764645        (1428 /sec)
decisions             : 78776840       (0.00 % random) (29882 /sec)
propagations          : 968804038      (367495 /sec)
sympropagations       : 13120869       (4977 /sec)
conflict literals     : 5430336456     (7.27 % deleted)
Memory used           : 58.00 MB
CPU time              : 2636.24 s

UNSATISFIABLE
